%%% static parameters %%%
timespan = 1;
Fact = [2];
Distr1 = [5];
Distr2 = [10];
Clients_N = [100];
Demand_W = [15];
Lt0 = [4];
Lt1 = [4];
SS_ = [0.85];
DS_D = [8];
K = [200];
MA = [500];
%%% dynamic parameters %%%
lost_ratio_sales_ret_th = 0.43295252219394864;
lost_ratio_sales_ret_w = 10;
lost_ratio_sales_dis_th = 0.699510416181109;
lost_ratio_sales_dis_w = 19;
lost_ratio_sales_fac_th = 0.9085427848247212;
lost_ratio_sales_fac_w = 99;
stock_customer_MA_mean_relative_th = 0.37469921115694704;
stock_customer_MA_mean_relative_w = 23;
stock_distributor_MA_mean_relative_th = 0.7317983947581779;
stock_distributor_MA_mean_relative_w = 81;
stock_retailer_MA_mean_relative_th = 0.4358347203431995;
stock_retailer_MA_mean_relative_w = 22;
stock_factory_MA_mean_relative_th = 0.12673818758081956;
stock_factory_MA_mean_relative_w = 29;
